p cnf 9 37
8 9 6 0
5 -4 -8 0
7 8 -4 0
7 -2 -3 0
-2 -9 5 0
-5 7 -1 0
9 -1 5 0
9 -4 -3 0
3 -6 -2 0
1 7 -9 0
-2 7 -6 0
2 7 -8 0
6 -1 3 0
2 -1 9 0
-6 -8 -4 0
8 5 7 0
-7 4 -2 0
9 2 1 0
-7 1 -9 0
7 4 -8 0
-3 4 -2 0
9 -8 5 0
-5 3 -8 0
-4 -3 2 0
-3 5 1 0
-6 2 8 0
-1 -5 8 0
-8 4 7 0
-3 -4 8 0
7 -1 9 0
2 5 -1 0
9 -3 -8 0
9 -1 7 0
7 -4 2 0
2 -3 6 0
9 -5 7 0
4 -2 3 0
